p edge 26 90
v 1 5
v 2 240
v 3 45
v 4 166
v 5 5
v 6 85
v 7 124
v 8 60
v 9 77
v 10 240
v 11 85
v 12 230
v 13 10
v 14 124
v 15 25
v 16 178
v 17 45
v 18 60
v 19 230
v 20 25
v 21 50
v 22 166
v 23 77
v 24 10
v 25 178
v 26 50
e 1 2
e 1 3
e 1 4
e 1 11
e 1 14
e 1 18
e 1 23
e 2 3
e 2 4
e 2 6
e 2 19
e 2 24
e 3 4
e 3 8
e 3 12
e 3 15
e 3 26
e 4 9
e 4 13
e 4 16
e 4 21
e 5 6
e 5 7
e 5 8
e 5 9
e 5 10
e 5 17
e 5 22
e 6 7
e 6 8
e 6 9
e 6 19
e 6 24
e 7 8
e 7 9
e 7 20
e 7 25
e 8 9
e 8 12
e 8 15
e 8 26
e 9 13
e 9 16
e 9 21
e 10 11
e 10 12
e 10 13
e 10 17
e 10 22
e 11 12
e 11 13
e 11 14
e 11 18
e 11 23
e 12 13
e 12 15
e 12 26
e 13 16
e 13 21
e 14 15
e 14 16
e 14 18
e 14 23
e 15 16
e 15 26
e 16 21
e 17 18
e 17 19
e 17 20
e 17 21
e 17 22
e 18 19
e 18 20
e 18 21
e 18 23
e 19 20
e 19 21
e 19 24
e 20 21
e 20 25
e 22 23
e 22 24
e 22 25
e 22 26
e 23 24
e 23 25
e 23 26
e 24 25
e 24 26
e 25 26
